\ Generated by MPModelProtoExporter
\   Name             : SCIP
\   Format           : Free
\   Constraints      : 45
\   Variables        : 465
\     Binary         : 465
\     Integer        : 0
\     Continuous     : 0
Minimize
 Obj: +12 x[0,0] +6 x[0,1] +59 x[0,2] +61 x[0,3] +44 x[0,4] +62 x[0,5] +63 x[0,6] +48 x[0,7] +44 x[0,8] +12 x[0,9] +56 x[0,10] +54 x[0,11] +6 x[0,12] +43 x[0,13] +27 x[0,14] +4 x[1,0] +30 x[1,1] +48 x[1,2] +38 x[1,3] +45 x[1,4] +75 x[1,5] +1 x[1,6] +39 x[1,7] +30 x[1,8] +43 x[1,9] +37 x[1,10] +12 x[1,11] +65 x[1,12] +46 x[1,13] +20 x[1,14] +50 x[2,0] +2 x[2,2] +70 x[2,3] +54 x[2,4] +15 x[2,5] +58 x[2,6] +2 x[2,7] +67 x[2,8] +32 x[2,9] +39 x[2,10] +68 x[2,11] +1 x[2,12] +55 x[2,13] +75 x[2,14] +22 x[3,0] +36 x[3,1] +29 x[3,2] +51 x[3,3] +62 x[3,4] +69 x[3,5] +55 x[3,6] +73 x[3,7] +88 x[3,8] +65 x[3,9] +1 x[3,10] +62 x[3,11] +27 x[3,13] +22 x[3,14] +11 x[4,0] +29 x[4,1] +91 x[4,2] +43 x[4,3] +63 x[4,4] +60 x[4,5] +11 x[4,6] +92 x[4,7] +2 x[4,8] +98 x[4,9] +90 x[4,10] +87 x[4,11] +57 x[4,12] +91 x[4,13] +78 x[4,14] +93 x[5,0] +74 x[5,1] +96 x[5,2] +32 x[5,3] +29 x[5,4] +90 x[5,5] +69 x[5,6] +14 x[5,7] +74 x[5,8] +26 x[5,9] +8 x[5,10] +80 x[5,11] +10 x[5,12] +80 x[5,13] +73 x[5,14] +73 x[6,0] +1 x[6,1] +79 x[6,2] +71 x[6,3] +30 x[6,4] +82 x[6,5] +38 x[6,6] +80 x[6,7] +68 x[6,8] +31 x[6,9] +18 x[6,10] +46 x[6,11] +30 x[6,13] +87 x[6,14] +76 x[7,0] +5 x[7,1] +44 x[7,2] +31 x[7,3] +17 x[7,4] +54 x[7,5] +72 x[7,6] +65 x[7,7] +89 x[7,8] +57 x[7,9] +50 x[7,10] +38 x[7,11] +11 x[7,12] +83 x[7,13] +18 x[7,14] +33 x[8,0] +42 x[8,1] +85 x[8,2] +61 x[8,3] +17 x[8,4] +27 x[8,5] +14 x[8,6] +9 x[8,7] +70 x[8,8] +16 x[8,9] +4 x[8,10] +39 x[8,11] +23 x[8,12] +95 x[8,13] +76 x[8,14] +19 x[9,0] +64 x[9,1] +47 x[9,2] +86 x[9,3] +99 x[9,4] +44 x[9,6] +4 x[9,7] +20 x[9,8] +93 x[9,9] +23 x[9,10] +17 x[9,11] +99 x[9,12] +86 x[9,13] +98 x[9,14] +84 x[10,0] +28 x[10,1] +8 x[10,2] +19 x[10,3] +86 x[10,4] +80 x[10,5] +14 x[10,6] +81 x[10,7] +48 x[10,8] +8 x[10,9] +1 x[10,10] +34 x[10,11] +30 x[10,12] +90 x[10,13] +5 x[10,14] +50 x[11,0] +10 x[11,1] +53 x[11,2] +72 x[11,3] +57 x[11,4] +12 x[11,5] +70 x[11,6] +57 x[11,7] +38 x[11,8] +43 x[11,9] +28 x[11,10] +89 x[11,11] +51 x[11,12] +49 x[11,13] +4 x[11,14] +21 x[12,0] +26 x[12,1] +4 x[12,2] +86 x[12,3] +37 x[12,4] +49 x[12,5] +83 x[12,6] +49 x[12,7] +83 x[12,8] +23 x[12,9] +1 x[12,10] +53 x[12,11] +69 x[12,12] +77 x[12,13] +94 x[12,14] +27 x[13,0] +28 x[13,1] +70 x[13,2] +2 x[13,3] +74 x[13,4] +45 x[13,5] +91 x[13,6] +57 x[13,7] +82 x[13,8] +1 x[13,9] +66 x[13,10] +94 x[13,11] +42 x[13,12] +67 x[13,13] +32 x[13,14] +45 x[14,0] +15 x[14,1] +68 x[14,2] +8 x[14,3] +74 x[14,4] +82 x[14,5] +2 x[14,6] +5 x[14,7] +71 x[14,8] +81 x[14,9] +62 x[14,10] +46 x[14,11] +99 x[14,12] +11 x[14,13] +13 x[14,14] +71 x[15,0] +82 x[15,1] +58 x[15,2] +27 x[15,3] +70 x[15,4] +65 x[15,5] +67 x[15,6] +64 x[15,7] +60 x[15,8] +86 x[15,9] +81 x[15,10] +57 x[15,11] +40 x[15,13] +1 x[15,14] +38 x[16,0] +5 x[16,1] +32 x[16,2] +50 x[16,3] +25 x[16,4] +9 x[16,5] +38 x[16,6] +45 x[16,7] +34 x[16,8] +90 x[16,9] +30 x[16,10] +3 x[16,11] +9 x[16,12] +50 x[16,13] +33 x[16,14] +44 x[17,0] +68 x[17,1] +19 x[17,2] +12 x[17,3] +58 x[17,4] +12 x[17,5] +18 x[17,6] +21 x[17,7] +58 x[17,8] +58 x[17,9] +9 x[17,10] +44 x[17,11] +27 x[17,12] +70 x[17,13] +16 x[17,14] +27 x[18,0] +35 x[18,1] +14 x[18,2] +90 x[18,3] +73 x[18,4] +92 x[18,5] +62 x[18,6] +51 x[18,7] +49 x[18,8] +47 x[18,9] +13 x[18,10] +36 x[18,11] +25 x[18,12] +59 x[18,13] +9 x[18,14] +39 x[19,0] +52 x[19,1] +2 x[19,2] +70 x[19,3] +6 x[19,4] +42 x[19,5] +71 x[19,6] +65 x[19,7] +38 x[19,8] +5 x[19,9] +17 x[19,10] +5 x[19,11] +9 x[19,12] +67 x[19,13] +10 x[20,0] +95 x[20,1] +59 x[20,2] +68 x[20,3] +3 x[20,4] +85 x[20,5] +67 x[20,6] +95 x[20,7] +24 x[20,8] +9 x[20,9] +70 x[20,10] +5 x[20,11] +64 x[20,12] +6 x[20,13] +8 x[20,14] +13 x[21,0] +67 x[21,1] +19 x[21,2] +67 x[21,3] +29 x[21,4] +51 x[21,5] +94 x[21,6] +63 x[21,7] +8 x[21,8] +45 x[21,9] +8 x[21,10] +62 x[21,11] +53 x[21,12] +33 x[21,13] +62 x[21,14] +73 x[22,0] +94 x[22,1] +72 x[22,2] +22 x[22,3] +4 x[22,4] +15 x[22,5] +13 x[22,6] +68 x[22,7] +50 x[22,8] +75 x[22,9] +31 x[22,10] +14 x[22,11] +79 x[22,12] +74 x[22,13] +64 x[22,14] +92 x[23,0] +18 x[23,1] +43 x[23,2] +15 x[23,3] +6 x[23,4] +51 x[23,5] +63 x[23,6] +44 x[23,7] +28 x[23,8] +3 x[23,9] +45 x[23,10] +79 x[23,11] +61 x[23,12] +47 x[23,13] +20 x[23,14] +15 x[24,0] +2 x[24,1] +70 x[24,2] +25 x[24,3] +73 x[24,4] +88 x[24,5] +88 x[24,6] +83 x[24,7] +50 x[24,8] +98 x[24,9] +92 x[24,10] +21 x[24,11] +72 x[24,12] +52 x[24,13] +61 x[24,14] +53 x[25,0] +38 x[25,1] +15 x[25,2] +77 x[25,3] +46 x[25,4] +6 x[25,5] +15 x[25,6] +36 x[25,7] +30 x[25,8] +79 x[25,9] +29 x[25,10] +27 x[25,11] +28 x[25,12] +72 x[25,13] +84 x[25,14] +28 x[26,0] +13 x[26,1] +76 x[26,2] +88 x[26,3] +48 x[26,4] +20 x[26,5] +52 x[26,6] +87 x[26,7] +1 x[26,8] +71 x[26,9] +17 x[26,10] +13 x[26,11] +84 x[26,13] +14 x[26,14] +62 x[27,0] +13 x[27,1] +85 x[27,2] +57 x[27,3] +27 x[27,4] +96 x[27,5] +36 x[27,6] +17 x[27,7] +70 x[27,8] +16 x[27,9] +53 x[27,10] +83 x[27,11] +1 x[27,12] +34 x[27,13] +68 x[27,14] +1 x[28,0] +20 x[28,1] +82 x[28,2] +70 x[28,3] +87 x[28,4] +12 x[28,5] +85 x[28,6] +29 x[28,7] +73 x[28,8] +19 x[28,9] +90 x[28,10] +72 x[28,11] +18 x[28,12] +29 x[28,13] +18 x[28,14] +86 x[29,0] +95 x[29,1] +39 x[29,2] +45 x[29,3] +52 x[29,4] +43 x[29,5] +10 x[29,6] +70 x[29,7] +45 x[29,8] +49 x[29,9] +97 x[29,10] +46 x[29,11] +44 x[29,12] +84 x[29,13] +26 x[29,14] +759 y[0] +406 y[1] +1411 y[2] +1019 y[3] +529 y[4] +699 y[5] +656 y[6] +568 y[7] +540 y[8] +618 y[9] +1327 y[10] +749 y[11] +511 y[12] +780 y[13] +768 y[14] 
Subject to
 auto_c_000000000: +1 x[0,0] +1 x[0,1] +1 x[0,2] +1 x[0,3] +1 x[0,4] +1 x[0,5] +1 x[0,6] +1 x[0,7] +1 x[0,8] +1 x[0,9] +1 x[0,10] +1 x[0,11] +1 x[0,12] +1 x[0,13] +1 x[0,14]  = 1
 auto_c_000000001: +1 x[1,0] +1 x[1,1] +1 x[1,2] +1 x[1,3] +1 x[1,4] +1 x[1,5] +1 x[1,6] +1 x[1,7] +1 x[1,8] +1 x[1,9] +1 x[1,10] +1 x[1,11] +1 x[1,12] +1 x[1,13] +1 x[1,14]  = 1
 auto_c_000000002: +1 x[2,0] +1 x[2,1] +1 x[2,2] +1 x[2,3] +1 x[2,4] +1 x[2,5] +1 x[2,6] +1 x[2,7] +1 x[2,8] +1 x[2,9] +1 x[2,10] +1 x[2,11] +1 x[2,12] +1 x[2,13] +1 x[2,14]  = 1
 auto_c_000000003: +1 x[3,0] +1 x[3,1] +1 x[3,2] +1 x[3,3] +1 x[3,4] +1 x[3,5] +1 x[3,6] +1 x[3,7] +1 x[3,8] +1 x[3,9] +1 x[3,10] +1 x[3,11] +1 x[3,12] +1 x[3,13] +1 x[3,14]  = 1
 auto_c_000000004: +1 x[4,0] +1 x[4,1] +1 x[4,2] +1 x[4,3] +1 x[4,4] +1 x[4,5] +1 x[4,6] +1 x[4,7] +1 x[4,8] +1 x[4,9] +1 x[4,10] +1 x[4,11] +1 x[4,12] +1 x[4,13] +1 x[4,14]  = 1
 auto_c_000000005: +1 x[5,0] +1 x[5,1] +1 x[5,2] +1 x[5,3] +1 x[5,4] +1 x[5,5] +1 x[5,6] +1 x[5,7] +1 x[5,8] +1 x[5,9] +1 x[5,10] +1 x[5,11] +1 x[5,12] +1 x[5,13] +1 x[5,14]  = 1
 auto_c_000000006: +1 x[6,0] +1 x[6,1] +1 x[6,2] +1 x[6,3] +1 x[6,4] +1 x[6,5] +1 x[6,6] +1 x[6,7] +1 x[6,8] +1 x[6,9] +1 x[6,10] +1 x[6,11] +1 x[6,12] +1 x[6,13] +1 x[6,14]  = 1
 auto_c_000000007: +1 x[7,0] +1 x[7,1] +1 x[7,2] +1 x[7,3] +1 x[7,4] +1 x[7,5] +1 x[7,6] +1 x[7,7] +1 x[7,8] +1 x[7,9] +1 x[7,10] +1 x[7,11] +1 x[7,12] +1 x[7,13] +1 x[7,14]  = 1
 auto_c_000000008: +1 x[8,0] +1 x[8,1] +1 x[8,2] +1 x[8,3] +1 x[8,4] +1 x[8,5] +1 x[8,6] +1 x[8,7] +1 x[8,8] +1 x[8,9] +1 x[8,10] +1 x[8,11] +1 x[8,12] +1 x[8,13] +1 x[8,14]  = 1
 auto_c_000000009: +1 x[9,0] +1 x[9,1] +1 x[9,2] +1 x[9,3] +1 x[9,4] +1 x[9,5] +1 x[9,6] +1 x[9,7] +1 x[9,8] +1 x[9,9] +1 x[9,10] +1 x[9,11] +1 x[9,12] +1 x[9,13] +1 x[9,14]  = 1
 auto_c_000000010: +1 x[10,0] +1 x[10,1] +1 x[10,2] +1 x[10,3] +1 x[10,4] +1 x[10,5] +1 x[10,6] +1 x[10,7] +1 x[10,8] +1 x[10,9] +1 x[10,10] +1 x[10,11] +1 x[10,12] +1 x[10,13] +1 x[10,14]  = 1
 auto_c_000000011: +1 x[11,0] +1 x[11,1] +1 x[11,2] +1 x[11,3] +1 x[11,4] +1 x[11,5] +1 x[11,6] +1 x[11,7] +1 x[11,8] +1 x[11,9] +1 x[11,10] +1 x[11,11] +1 x[11,12] +1 x[11,13] +1 x[11,14]  = 1
 auto_c_000000012: +1 x[12,0] +1 x[12,1] +1 x[12,2] +1 x[12,3] +1 x[12,4] +1 x[12,5] +1 x[12,6] +1 x[12,7] +1 x[12,8] +1 x[12,9] +1 x[12,10] +1 x[12,11] +1 x[12,12] +1 x[12,13] +1 x[12,14]  = 1
 auto_c_000000013: +1 x[13,0] +1 x[13,1] +1 x[13,2] +1 x[13,3] +1 x[13,4] +1 x[13,5] +1 x[13,6] +1 x[13,7] +1 x[13,8] +1 x[13,9] +1 x[13,10] +1 x[13,11] +1 x[13,12] +1 x[13,13] +1 x[13,14]  = 1
 auto_c_000000014: +1 x[14,0] +1 x[14,1] +1 x[14,2] +1 x[14,3] +1 x[14,4] +1 x[14,5] +1 x[14,6] +1 x[14,7] +1 x[14,8] +1 x[14,9] +1 x[14,10] +1 x[14,11] +1 x[14,12] +1 x[14,13] +1 x[14,14]  = 1
 auto_c_000000015: +1 x[15,0] +1 x[15,1] +1 x[15,2] +1 x[15,3] +1 x[15,4] +1 x[15,5] +1 x[15,6] +1 x[15,7] +1 x[15,8] +1 x[15,9] +1 x[15,10] +1 x[15,11] +1 x[15,12] +1 x[15,13] +1 x[15,14]  = 1
 auto_c_000000016: +1 x[16,0] +1 x[16,1] +1 x[16,2] +1 x[16,3] +1 x[16,4] +1 x[16,5] +1 x[16,6] +1 x[16,7] +1 x[16,8] +1 x[16,9] +1 x[16,10] +1 x[16,11] +1 x[16,12] +1 x[16,13] +1 x[16,14]  = 1
 auto_c_000000017: +1 x[17,0] +1 x[17,1] +1 x[17,2] +1 x[17,3] +1 x[17,4] +1 x[17,5] +1 x[17,6] +1 x[17,7] +1 x[17,8] +1 x[17,9] +1 x[17,10] +1 x[17,11] +1 x[17,12] +1 x[17,13] +1 x[17,14]  = 1
 auto_c_000000018: +1 x[18,0] +1 x[18,1] +1 x[18,2] +1 x[18,3] +1 x[18,4] +1 x[18,5] +1 x[18,6] +1 x[18,7] +1 x[18,8] +1 x[18,9] +1 x[18,10] +1 x[18,11] +1 x[18,12] +1 x[18,13] +1 x[18,14]  = 1
 auto_c_000000019: +1 x[19,0] +1 x[19,1] +1 x[19,2] +1 x[19,3] +1 x[19,4] +1 x[19,5] +1 x[19,6] +1 x[19,7] +1 x[19,8] +1 x[19,9] +1 x[19,10] +1 x[19,11] +1 x[19,12] +1 x[19,13] +1 x[19,14]  = 1
 auto_c_000000020: +1 x[20,0] +1 x[20,1] +1 x[20,2] +1 x[20,3] +1 x[20,4] +1 x[20,5] +1 x[20,6] +1 x[20,7] +1 x[20,8] +1 x[20,9] +1 x[20,10] +1 x[20,11] +1 x[20,12] +1 x[20,13] +1 x[20,14]  = 1
 auto_c_000000021: +1 x[21,0] +1 x[21,1] +1 x[21,2] +1 x[21,3] +1 x[21,4] +1 x[21,5] +1 x[21,6] +1 x[21,7] +1 x[21,8] +1 x[21,9] +1 x[21,10] +1 x[21,11] +1 x[21,12] +1 x[21,13] +1 x[21,14]  = 1
 auto_c_000000022: +1 x[22,0] +1 x[22,1] +1 x[22,2] +1 x[22,3] +1 x[22,4] +1 x[22,5] +1 x[22,6] +1 x[22,7] +1 x[22,8] +1 x[22,9] +1 x[22,10] +1 x[22,11] +1 x[22,12] +1 x[22,13] +1 x[22,14]  = 1
 auto_c_000000023: +1 x[23,0] +1 x[23,1] +1 x[23,2] +1 x[23,3] +1 x[23,4] +1 x[23,5] +1 x[23,6] +1 x[23,7] +1 x[23,8] +1 x[23,9] +1 x[23,10] +1 x[23,11] +1 x[23,12] +1 x[23,13] +1 x[23,14]  = 1
 auto_c_000000024: +1 x[24,0] +1 x[24,1] +1 x[24,2] +1 x[24,3] +1 x[24,4] +1 x[24,5] +1 x[24,6] +1 x[24,7] +1 x[24,8] +1 x[24,9] +1 x[24,10] +1 x[24,11] +1 x[24,12] +1 x[24,13] +1 x[24,14]  = 1
 auto_c_000000025: +1 x[25,0] +1 x[25,1] +1 x[25,2] +1 x[25,3] +1 x[25,4] +1 x[25,5] +1 x[25,6] +1 x[25,7] +1 x[25,8] +1 x[25,9] +1 x[25,10] +1 x[25,11] +1 x[25,12] +1 x[25,13] +1 x[25,14]  = 1
 auto_c_000000026: +1 x[26,0] +1 x[26,1] +1 x[26,2] +1 x[26,3] +1 x[26,4] +1 x[26,5] +1 x[26,6] +1 x[26,7] +1 x[26,8] +1 x[26,9] +1 x[26,10] +1 x[26,11] +1 x[26,12] +1 x[26,13] +1 x[26,14]  = 1
 auto_c_000000027: +1 x[27,0] +1 x[27,1] +1 x[27,2] +1 x[27,3] +1 x[27,4] +1 x[27,5] +1 x[27,6] +1 x[27,7] +1 x[27,8] +1 x[27,9] +1 x[27,10] +1 x[27,11] +1 x[27,12] +1 x[27,13] +1 x[27,14]  = 1
 auto_c_000000028: +1 x[28,0] +1 x[28,1] +1 x[28,2] +1 x[28,3] +1 x[28,4] +1 x[28,5] +1 x[28,6] +1 x[28,7] +1 x[28,8] +1 x[28,9] +1 x[28,10] +1 x[28,11] +1 x[28,12] +1 x[28,13] +1 x[28,14]  = 1
 auto_c_000000029: +1 x[29,0] +1 x[29,1] +1 x[29,2] +1 x[29,3] +1 x[29,4] +1 x[29,5] +1 x[29,6] +1 x[29,7] +1 x[29,8] +1 x[29,9] +1 x[29,10] +1 x[29,11] +1 x[29,12] +1 x[29,13] +1 x[29,14]  = 1
 auto_c_000000030: +27 x[0,0] +34 x[1,0] +6 x[2,0] +14 x[3,0] +8 x[4,0] +33 x[5,0] +36 x[6,0] +18 x[7,0] +30 x[8,0] +19 x[9,0] +23 x[10,0] +8 x[11,0] +5 x[12,0] +16 x[13,0] +20 x[14,0] +22 x[15,0] +8 x[16,0] +6 x[17,0] +14 x[18,0] +28 x[19,0] +6 x[20,0] +17 x[21,0] +15 x[22,0] +32 x[23,0] +1 x[24,0] +11 x[25,0] +29 x[26,0] +3 x[27,0] +23 x[28,0] +21 x[29,0] -46 y[0]  <= 0
 auto_c_000000031: +27 x[0,1] +34 x[1,1] +6 x[2,1] +14 x[3,1] +8 x[4,1] +33 x[5,1] +36 x[6,1] +18 x[7,1] +30 x[8,1] +19 x[9,1] +23 x[10,1] +8 x[11,1] +5 x[12,1] +16 x[13,1] +20 x[14,1] +22 x[15,1] +8 x[16,1] +6 x[17,1] +14 x[18,1] +28 x[19,1] +6 x[20,1] +17 x[21,1] +15 x[22,1] +32 x[23,1] +1 x[24,1] +11 x[25,1] +29 x[26,1] +3 x[27,1] +23 x[28,1] +21 x[29,1] -21 y[1]  <= 0
 auto_c_000000032: +27 x[0,2] +34 x[1,2] +6 x[2,2] +14 x[3,2] +8 x[4,2] +33 x[5,2] +36 x[6,2] +18 x[7,2] +30 x[8,2] +19 x[9,2] +23 x[10,2] +8 x[11,2] +5 x[12,2] +16 x[13,2] +20 x[14,2] +22 x[15,2] +8 x[16,2] +6 x[17,2] +14 x[18,2] +28 x[19,2] +6 x[20,2] +17 x[21,2] +15 x[22,2] +32 x[23,2] +1 x[24,2] +11 x[25,2] +29 x[26,2] +3 x[27,2] +23 x[28,2] +21 x[29,2] -57 y[2]  <= 0
 auto_c_000000033: +27 x[0,3] +34 x[1,3] +6 x[2,3] +14 x[3,3] +8 x[4,3] +33 x[5,3] +36 x[6,3] +18 x[7,3] +30 x[8,3] +19 x[9,3] +23 x[10,3] +8 x[11,3] +5 x[12,3] +16 x[13,3] +20 x[14,3] +22 x[15,3] +8 x[16,3] +6 x[17,3] +14 x[18,3] +28 x[19,3] +6 x[20,3] +17 x[21,3] +15 x[22,3] +32 x[23,3] +1 x[24,3] +11 x[25,3] +29 x[26,3] +3 x[27,3] +23 x[28,3] +21 x[29,3] -66 y[3]  <= 0
 auto_c_000000034: +27 x[0,4] +34 x[1,4] +6 x[2,4] +14 x[3,4] +8 x[4,4] +33 x[5,4] +36 x[6,4] +18 x[7,4] +30 x[8,4] +19 x[9,4] +23 x[10,4] +8 x[11,4] +5 x[12,4] +16 x[13,4] +20 x[14,4] +22 x[15,4] +8 x[16,4] +6 x[17,4] +14 x[18,4] +28 x[19,4] +6 x[20,4] +17 x[21,4] +15 x[22,4] +32 x[23,4] +1 x[24,4] +11 x[25,4] +29 x[26,4] +3 x[27,4] +23 x[28,4] +21 x[29,4] -57 y[4]  <= 0
 auto_c_000000035: +27 x[0,5] +34 x[1,5] +6 x[2,5] +14 x[3,5] +8 x[4,5] +33 x[5,5] +36 x[6,5] +18 x[7,5] +30 x[8,5] +19 x[9,5] +23 x[10,5] +8 x[11,5] +5 x[12,5] +16 x[13,5] +20 x[14,5] +22 x[15,5] +8 x[16,5] +6 x[17,5] +14 x[18,5] +28 x[19,5] +6 x[20,5] +17 x[21,5] +15 x[22,5] +32 x[23,5] +1 x[24,5] +11 x[25,5] +29 x[26,5] +3 x[27,5] +23 x[28,5] +21 x[29,5] -48 y[5]  <= 0
 auto_c_000000036: +27 x[0,6] +34 x[1,6] +6 x[2,6] +14 x[3,6] +8 x[4,6] +33 x[5,6] +36 x[6,6] +18 x[7,6] +30 x[8,6] +19 x[9,6] +23 x[10,6] +8 x[11,6] +5 x[12,6] +16 x[13,6] +20 x[14,6] +22 x[15,6] +8 x[16,6] +6 x[17,6] +14 x[18,6] +28 x[19,6] +6 x[20,6] +17 x[21,6] +15 x[22,6] +32 x[23,6] +1 x[24,6] +11 x[25,6] +29 x[26,6] +3 x[27,6] +23 x[28,6] +21 x[29,6] -44 y[6]  <= 0
 auto_c_000000037: +27 x[0,7] +34 x[1,7] +6 x[2,7] +14 x[3,7] +8 x[4,7] +33 x[5,7] +36 x[6,7] +18 x[7,7] +30 x[8,7] +19 x[9,7] +23 x[10,7] +8 x[11,7] +5 x[12,7] +16 x[13,7] +20 x[14,7] +22 x[15,7] +8 x[16,7] +6 x[17,7] +14 x[18,7] +28 x[19,7] +6 x[20,7] +17 x[21,7] +15 x[22,7] +32 x[23,7] +1 x[24,7] +11 x[25,7] +29 x[26,7] +3 x[27,7] +23 x[28,7] +21 x[29,7] -58 y[7]  <= 0
 auto_c_000000038: +27 x[0,8] +34 x[1,8] +6 x[2,8] +14 x[3,8] +8 x[4,8] +33 x[5,8] +36 x[6,8] +18 x[7,8] +30 x[8,8] +19 x[9,8] +23 x[10,8] +8 x[11,8] +5 x[12,8] +16 x[13,8] +20 x[14,8] +22 x[15,8] +8 x[16,8] +6 x[17,8] +14 x[18,8] +28 x[19,8] +6 x[20,8] +17 x[21,8] +15 x[22,8] +32 x[23,8] +1 x[24,8] +11 x[25,8] +29 x[26,8] +3 x[27,8] +23 x[28,8] +21 x[29,8] -28 y[8]  <= 0
 auto_c_000000039: +27 x[0,9] +34 x[1,9] +6 x[2,9] +14 x[3,9] +8 x[4,9] +33 x[5,9] +36 x[6,9] +18 x[7,9] +30 x[8,9] +19 x[9,9] +23 x[10,9] +8 x[11,9] +5 x[12,9] +16 x[13,9] +20 x[14,9] +22 x[15,9] +8 x[16,9] +6 x[17,9] +14 x[18,9] +28 x[19,9] +6 x[20,9] +17 x[21,9] +15 x[22,9] +32 x[23,9] +1 x[24,9] +11 x[25,9] +29 x[26,9] +3 x[27,9] +23 x[28,9] +21 x[29,9] -25 y[9]  <= 0
 auto_c_000000040: +27 x[0,10] +34 x[1,10] +6 x[2,10] +14 x[3,10] +8 x[4,10] +33 x[5,10] +36 x[6,10] +18 x[7,10] +30 x[8,10] +19 x[9,10] +23 x[10,10] +8 x[11,10] +5 x[12,10] +16 x[13,10] +20 x[14,10] +22 x[15,10] +8 x[16,10] +6 x[17,10] +14 x[18,10] +28 x[19,10] +6 x[20,10] +17 x[21,10] +15 x[22,10] +32 x[23,10] +1 x[24,10] +11 x[25,10] +29 x[26,10] +3 x[27,10] +23 x[28,10] +21 x[29,10] -58 y[10]  <= 0
 auto_c_000000041: +27 x[0,11] +34 x[1,11] +6 x[2,11] +14 x[3,11] +8 x[4,11] +33 x[5,11] +36 x[6,11] +18 x[7,11] +30 x[8,11] +19 x[9,11] +23 x[10,11] +8 x[11,11] +5 x[12,11] +16 x[13,11] +20 x[14,11] +22 x[15,11] +8 x[16,11] +6 x[17,11] +14 x[18,11] +28 x[19,11] +6 x[20,11] +17 x[21,11] +15 x[22,11] +32 x[23,11] +1 x[24,11] +11 x[25,11] +29 x[26,11] +3 x[27,11] +23 x[28,11] +21 x[29,11] -68 y[11]  <= 0
 auto_c_000000042: +27 x[0,12] +34 x[1,12] +6 x[2,12] +14 x[3,12] +8 x[4,12] +33 x[5,12] +36 x[6,12] +18 x[7,12] +30 x[8,12] +19 x[9,12] +23 x[10,12] +8 x[11,12] +5 x[12,12] +16 x[13,12] +20 x[14,12] +22 x[15,12] +8 x[16,12] +6 x[17,12] +14 x[18,12] +28 x[19,12] +6 x[20,12] +17 x[21,12] +15 x[22,12] +32 x[23,12] +1 x[24,12] +11 x[25,12] +29 x[26,12] +3 x[27,12] +23 x[28,12] +21 x[29,12] -34 y[12]  <= 0
 auto_c_000000043: +27 x[0,13] +34 x[1,13] +6 x[2,13] +14 x[3,13] +8 x[4,13] +33 x[5,13] +36 x[6,13] +18 x[7,13] +30 x[8,13] +19 x[9,13] +23 x[10,13] +8 x[11,13] +5 x[12,13] +16 x[13,13] +20 x[14,13] +22 x[15,13] +8 x[16,13] +6 x[17,13] +14 x[18,13] +28 x[19,13] +6 x[20,13] +17 x[21,13] +15 x[22,13] +32 x[23,13] +1 x[24,13] +11 x[25,13] +29 x[26,13] +3 x[27,13] +23 x[28,13] +21 x[29,13] -53 y[13]  <= 0
 auto_c_000000044: +27 x[0,14] +34 x[1,14] +6 x[2,14] +14 x[3,14] +8 x[4,14] +33 x[5,14] +36 x[6,14] +18 x[7,14] +30 x[8,14] +19 x[9,14] +23 x[10,14] +8 x[11,14] +5 x[12,14] +16 x[13,14] +20 x[14,14] +22 x[15,14] +8 x[16,14] +6 x[17,14] +14 x[18,14] +28 x[19,14] +6 x[20,14] +17 x[21,14] +15 x[22,14] +32 x[23,14] +1 x[24,14] +11 x[25,14] +29 x[26,14] +3 x[27,14] +23 x[28,14] +21 x[29,14] -44 y[14]  <= 0
Bounds
 0 <= x[0,0] <= 1
 0 <= x[0,1] <= 1
 0 <= x[0,2] <= 1
 0 <= x[0,3] <= 1
 0 <= x[0,4] <= 1
 0 <= x[0,5] <= 1
 0 <= x[0,6] <= 1
 0 <= x[0,7] <= 1
 0 <= x[0,8] <= 1
 0 <= x[0,9] <= 1
 0 <= x[0,10] <= 1
 0 <= x[0,11] <= 1
 0 <= x[0,12] <= 1
 0 <= x[0,13] <= 1
 0 <= x[0,14] <= 1
 0 <= x[1,0] <= 1
 0 <= x[1,1] <= 1
 0 <= x[1,2] <= 1
 0 <= x[1,3] <= 1
 0 <= x[1,4] <= 1
 0 <= x[1,5] <= 1
 0 <= x[1,6] <= 1
 0 <= x[1,7] <= 1
 0 <= x[1,8] <= 1
 0 <= x[1,9] <= 1
 0 <= x[1,10] <= 1
 0 <= x[1,11] <= 1
 0 <= x[1,12] <= 1
 0 <= x[1,13] <= 1
 0 <= x[1,14] <= 1
 0 <= x[2,0] <= 1
 0 <= x[2,1] <= 1
 0 <= x[2,2] <= 1
 0 <= x[2,3] <= 1
 0 <= x[2,4] <= 1
 0 <= x[2,5] <= 1
 0 <= x[2,6] <= 1
 0 <= x[2,7] <= 1
 0 <= x[2,8] <= 1
 0 <= x[2,9] <= 1
 0 <= x[2,10] <= 1
 0 <= x[2,11] <= 1
 0 <= x[2,12] <= 1
 0 <= x[2,13] <= 1
 0 <= x[2,14] <= 1
 0 <= x[3,0] <= 1
 0 <= x[3,1] <= 1
 0 <= x[3,2] <= 1
 0 <= x[3,3] <= 1
 0 <= x[3,4] <= 1
 0 <= x[3,5] <= 1
 0 <= x[3,6] <= 1
 0 <= x[3,7] <= 1
 0 <= x[3,8] <= 1
 0 <= x[3,9] <= 1
 0 <= x[3,10] <= 1
 0 <= x[3,11] <= 1
 0 <= x[3,12] <= 1
 0 <= x[3,13] <= 1
 0 <= x[3,14] <= 1
 0 <= x[4,0] <= 1
 0 <= x[4,1] <= 1
 0 <= x[4,2] <= 1
 0 <= x[4,3] <= 1
 0 <= x[4,4] <= 1
 0 <= x[4,5] <= 1
 0 <= x[4,6] <= 1
 0 <= x[4,7] <= 1
 0 <= x[4,8] <= 1
 0 <= x[4,9] <= 1
 0 <= x[4,10] <= 1
 0 <= x[4,11] <= 1
 0 <= x[4,12] <= 1
 0 <= x[4,13] <= 1
 0 <= x[4,14] <= 1
 0 <= x[5,0] <= 1
 0 <= x[5,1] <= 1
 0 <= x[5,2] <= 1
 0 <= x[5,3] <= 1
 0 <= x[5,4] <= 1
 0 <= x[5,5] <= 1
 0 <= x[5,6] <= 1
 0 <= x[5,7] <= 1
 0 <= x[5,8] <= 1
 0 <= x[5,9] <= 1
 0 <= x[5,10] <= 1
 0 <= x[5,11] <= 1
 0 <= x[5,12] <= 1
 0 <= x[5,13] <= 1
 0 <= x[5,14] <= 1
 0 <= x[6,0] <= 1
 0 <= x[6,1] <= 1
 0 <= x[6,2] <= 1
 0 <= x[6,3] <= 1
 0 <= x[6,4] <= 1
 0 <= x[6,5] <= 1
 0 <= x[6,6] <= 1
 0 <= x[6,7] <= 1
 0 <= x[6,8] <= 1
 0 <= x[6,9] <= 1
 0 <= x[6,10] <= 1
 0 <= x[6,11] <= 1
 0 <= x[6,12] <= 1
 0 <= x[6,13] <= 1
 0 <= x[6,14] <= 1
 0 <= x[7,0] <= 1
 0 <= x[7,1] <= 1
 0 <= x[7,2] <= 1
 0 <= x[7,3] <= 1
 0 <= x[7,4] <= 1
 0 <= x[7,5] <= 1
 0 <= x[7,6] <= 1
 0 <= x[7,7] <= 1
 0 <= x[7,8] <= 1
 0 <= x[7,9] <= 1
 0 <= x[7,10] <= 1
 0 <= x[7,11] <= 1
 0 <= x[7,12] <= 1
 0 <= x[7,13] <= 1
 0 <= x[7,14] <= 1
 0 <= x[8,0] <= 1
 0 <= x[8,1] <= 1
 0 <= x[8,2] <= 1
 0 <= x[8,3] <= 1
 0 <= x[8,4] <= 1
 0 <= x[8,5] <= 1
 0 <= x[8,6] <= 1
 0 <= x[8,7] <= 1
 0 <= x[8,8] <= 1
 0 <= x[8,9] <= 1
 0 <= x[8,10] <= 1
 0 <= x[8,11] <= 1
 0 <= x[8,12] <= 1
 0 <= x[8,13] <= 1
 0 <= x[8,14] <= 1
 0 <= x[9,0] <= 1
 0 <= x[9,1] <= 1
 0 <= x[9,2] <= 1
 0 <= x[9,3] <= 1
 0 <= x[9,4] <= 1
 0 <= x[9,5] <= 1
 0 <= x[9,6] <= 1
 0 <= x[9,7] <= 1
 0 <= x[9,8] <= 1
 0 <= x[9,9] <= 1
 0 <= x[9,10] <= 1
 0 <= x[9,11] <= 1
 0 <= x[9,12] <= 1
 0 <= x[9,13] <= 1
 0 <= x[9,14] <= 1
 0 <= x[10,0] <= 1
 0 <= x[10,1] <= 1
 0 <= x[10,2] <= 1
 0 <= x[10,3] <= 1
 0 <= x[10,4] <= 1
 0 <= x[10,5] <= 1
 0 <= x[10,6] <= 1
 0 <= x[10,7] <= 1
 0 <= x[10,8] <= 1
 0 <= x[10,9] <= 1
 0 <= x[10,10] <= 1
 0 <= x[10,11] <= 1
 0 <= x[10,12] <= 1
 0 <= x[10,13] <= 1
 0 <= x[10,14] <= 1
 0 <= x[11,0] <= 1
 0 <= x[11,1] <= 1
 0 <= x[11,2] <= 1
 0 <= x[11,3] <= 1
 0 <= x[11,4] <= 1
 0 <= x[11,5] <= 1
 0 <= x[11,6] <= 1
 0 <= x[11,7] <= 1
 0 <= x[11,8] <= 1
 0 <= x[11,9] <= 1
 0 <= x[11,10] <= 1
 0 <= x[11,11] <= 1
 0 <= x[11,12] <= 1
 0 <= x[11,13] <= 1
 0 <= x[11,14] <= 1
 0 <= x[12,0] <= 1
 0 <= x[12,1] <= 1
 0 <= x[12,2] <= 1
 0 <= x[12,3] <= 1
 0 <= x[12,4] <= 1
 0 <= x[12,5] <= 1
 0 <= x[12,6] <= 1
 0 <= x[12,7] <= 1
 0 <= x[12,8] <= 1
 0 <= x[12,9] <= 1
 0 <= x[12,10] <= 1
 0 <= x[12,11] <= 1
 0 <= x[12,12] <= 1
 0 <= x[12,13] <= 1
 0 <= x[12,14] <= 1
 0 <= x[13,0] <= 1
 0 <= x[13,1] <= 1
 0 <= x[13,2] <= 1
 0 <= x[13,3] <= 1
 0 <= x[13,4] <= 1
 0 <= x[13,5] <= 1
 0 <= x[13,6] <= 1
 0 <= x[13,7] <= 1
 0 <= x[13,8] <= 1
 0 <= x[13,9] <= 1
 0 <= x[13,10] <= 1
 0 <= x[13,11] <= 1
 0 <= x[13,12] <= 1
 0 <= x[13,13] <= 1
 0 <= x[13,14] <= 1
 0 <= x[14,0] <= 1
 0 <= x[14,1] <= 1
 0 <= x[14,2] <= 1
 0 <= x[14,3] <= 1
 0 <= x[14,4] <= 1
 0 <= x[14,5] <= 1
 0 <= x[14,6] <= 1
 0 <= x[14,7] <= 1
 0 <= x[14,8] <= 1
 0 <= x[14,9] <= 1
 0 <= x[14,10] <= 1
 0 <= x[14,11] <= 1
 0 <= x[14,12] <= 1
 0 <= x[14,13] <= 1
 0 <= x[14,14] <= 1
 0 <= x[15,0] <= 1
 0 <= x[15,1] <= 1
 0 <= x[15,2] <= 1
 0 <= x[15,3] <= 1
 0 <= x[15,4] <= 1
 0 <= x[15,5] <= 1
 0 <= x[15,6] <= 1
 0 <= x[15,7] <= 1
 0 <= x[15,8] <= 1
 0 <= x[15,9] <= 1
 0 <= x[15,10] <= 1
 0 <= x[15,11] <= 1
 0 <= x[15,12] <= 1
 0 <= x[15,13] <= 1
 0 <= x[15,14] <= 1
 0 <= x[16,0] <= 1
 0 <= x[16,1] <= 1
 0 <= x[16,2] <= 1
 0 <= x[16,3] <= 1
 0 <= x[16,4] <= 1
 0 <= x[16,5] <= 1
 0 <= x[16,6] <= 1
 0 <= x[16,7] <= 1
 0 <= x[16,8] <= 1
 0 <= x[16,9] <= 1
 0 <= x[16,10] <= 1
 0 <= x[16,11] <= 1
 0 <= x[16,12] <= 1
 0 <= x[16,13] <= 1
 0 <= x[16,14] <= 1
 0 <= x[17,0] <= 1
 0 <= x[17,1] <= 1
 0 <= x[17,2] <= 1
 0 <= x[17,3] <= 1
 0 <= x[17,4] <= 1
 0 <= x[17,5] <= 1
 0 <= x[17,6] <= 1
 0 <= x[17,7] <= 1
 0 <= x[17,8] <= 1
 0 <= x[17,9] <= 1
 0 <= x[17,10] <= 1
 0 <= x[17,11] <= 1
 0 <= x[17,12] <= 1
 0 <= x[17,13] <= 1
 0 <= x[17,14] <= 1
 0 <= x[18,0] <= 1
 0 <= x[18,1] <= 1
 0 <= x[18,2] <= 1
 0 <= x[18,3] <= 1
 0 <= x[18,4] <= 1
 0 <= x[18,5] <= 1
 0 <= x[18,6] <= 1
 0 <= x[18,7] <= 1
 0 <= x[18,8] <= 1
 0 <= x[18,9] <= 1
 0 <= x[18,10] <= 1
 0 <= x[18,11] <= 1
 0 <= x[18,12] <= 1
 0 <= x[18,13] <= 1
 0 <= x[18,14] <= 1
 0 <= x[19,0] <= 1
 0 <= x[19,1] <= 1
 0 <= x[19,2] <= 1
 0 <= x[19,3] <= 1
 0 <= x[19,4] <= 1
 0 <= x[19,5] <= 1
 0 <= x[19,6] <= 1
 0 <= x[19,7] <= 1
 0 <= x[19,8] <= 1
 0 <= x[19,9] <= 1
 0 <= x[19,10] <= 1
 0 <= x[19,11] <= 1
 0 <= x[19,12] <= 1
 0 <= x[19,13] <= 1
 0 <= x[19,14] <= 1
 0 <= x[20,0] <= 1
 0 <= x[20,1] <= 1
 0 <= x[20,2] <= 1
 0 <= x[20,3] <= 1
 0 <= x[20,4] <= 1
 0 <= x[20,5] <= 1
 0 <= x[20,6] <= 1
 0 <= x[20,7] <= 1
 0 <= x[20,8] <= 1
 0 <= x[20,9] <= 1
 0 <= x[20,10] <= 1
 0 <= x[20,11] <= 1
 0 <= x[20,12] <= 1
 0 <= x[20,13] <= 1
 0 <= x[20,14] <= 1
 0 <= x[21,0] <= 1
 0 <= x[21,1] <= 1
 0 <= x[21,2] <= 1
 0 <= x[21,3] <= 1
 0 <= x[21,4] <= 1
 0 <= x[21,5] <= 1
 0 <= x[21,6] <= 1
 0 <= x[21,7] <= 1
 0 <= x[21,8] <= 1
 0 <= x[21,9] <= 1
 0 <= x[21,10] <= 1
 0 <= x[21,11] <= 1
 0 <= x[21,12] <= 1
 0 <= x[21,13] <= 1
 0 <= x[21,14] <= 1
 0 <= x[22,0] <= 1
 0 <= x[22,1] <= 1
 0 <= x[22,2] <= 1
 0 <= x[22,3] <= 1
 0 <= x[22,4] <= 1
 0 <= x[22,5] <= 1
 0 <= x[22,6] <= 1
 0 <= x[22,7] <= 1
 0 <= x[22,8] <= 1
 0 <= x[22,9] <= 1
 0 <= x[22,10] <= 1
 0 <= x[22,11] <= 1
 0 <= x[22,12] <= 1
 0 <= x[22,13] <= 1
 0 <= x[22,14] <= 1
 0 <= x[23,0] <= 1
 0 <= x[23,1] <= 1
 0 <= x[23,2] <= 1
 0 <= x[23,3] <= 1
 0 <= x[23,4] <= 1
 0 <= x[23,5] <= 1
 0 <= x[23,6] <= 1
 0 <= x[23,7] <= 1
 0 <= x[23,8] <= 1
 0 <= x[23,9] <= 1
 0 <= x[23,10] <= 1
 0 <= x[23,11] <= 1
 0 <= x[23,12] <= 1
 0 <= x[23,13] <= 1
 0 <= x[23,14] <= 1
 0 <= x[24,0] <= 1
 0 <= x[24,1] <= 1
 0 <= x[24,2] <= 1
 0 <= x[24,3] <= 1
 0 <= x[24,4] <= 1
 0 <= x[24,5] <= 1
 0 <= x[24,6] <= 1
 0 <= x[24,7] <= 1
 0 <= x[24,8] <= 1
 0 <= x[24,9] <= 1
 0 <= x[24,10] <= 1
 0 <= x[24,11] <= 1
 0 <= x[24,12] <= 1
 0 <= x[24,13] <= 1
 0 <= x[24,14] <= 1
 0 <= x[25,0] <= 1
 0 <= x[25,1] <= 1
 0 <= x[25,2] <= 1
 0 <= x[25,3] <= 1
 0 <= x[25,4] <= 1
 0 <= x[25,5] <= 1
 0 <= x[25,6] <= 1
 0 <= x[25,7] <= 1
 0 <= x[25,8] <= 1
 0 <= x[25,9] <= 1
 0 <= x[25,10] <= 1
 0 <= x[25,11] <= 1
 0 <= x[25,12] <= 1
 0 <= x[25,13] <= 1
 0 <= x[25,14] <= 1
 0 <= x[26,0] <= 1
 0 <= x[26,1] <= 1
 0 <= x[26,2] <= 1
 0 <= x[26,3] <= 1
 0 <= x[26,4] <= 1
 0 <= x[26,5] <= 1
 0 <= x[26,6] <= 1
 0 <= x[26,7] <= 1
 0 <= x[26,8] <= 1
 0 <= x[26,9] <= 1
 0 <= x[26,10] <= 1
 0 <= x[26,11] <= 1
 0 <= x[26,12] <= 1
 0 <= x[26,13] <= 1
 0 <= x[26,14] <= 1
 0 <= x[27,0] <= 1
 0 <= x[27,1] <= 1
 0 <= x[27,2] <= 1
 0 <= x[27,3] <= 1
 0 <= x[27,4] <= 1
 0 <= x[27,5] <= 1
 0 <= x[27,6] <= 1
 0 <= x[27,7] <= 1
 0 <= x[27,8] <= 1
 0 <= x[27,9] <= 1
 0 <= x[27,10] <= 1
 0 <= x[27,11] <= 1
 0 <= x[27,12] <= 1
 0 <= x[27,13] <= 1
 0 <= x[27,14] <= 1
 0 <= x[28,0] <= 1
 0 <= x[28,1] <= 1
 0 <= x[28,2] <= 1
 0 <= x[28,3] <= 1
 0 <= x[28,4] <= 1
 0 <= x[28,5] <= 1
 0 <= x[28,6] <= 1
 0 <= x[28,7] <= 1
 0 <= x[28,8] <= 1
 0 <= x[28,9] <= 1
 0 <= x[28,10] <= 1
 0 <= x[28,11] <= 1
 0 <= x[28,12] <= 1
 0 <= x[28,13] <= 1
 0 <= x[28,14] <= 1
 0 <= x[29,0] <= 1
 0 <= x[29,1] <= 1
 0 <= x[29,2] <= 1
 0 <= x[29,3] <= 1
 0 <= x[29,4] <= 1
 0 <= x[29,5] <= 1
 0 <= x[29,6] <= 1
 0 <= x[29,7] <= 1
 0 <= x[29,8] <= 1
 0 <= x[29,9] <= 1
 0 <= x[29,10] <= 1
 0 <= x[29,11] <= 1
 0 <= x[29,12] <= 1
 0 <= x[29,13] <= 1
 0 <= x[29,14] <= 1
 0 <= y[0] <= 1
 0 <= y[1] <= 1
 0 <= y[2] <= 1
 0 <= y[3] <= 1
 0 <= y[4] <= 1
 0 <= y[5] <= 1
 0 <= y[6] <= 1
 0 <= y[7] <= 1
 0 <= y[8] <= 1
 0 <= y[9] <= 1
 0 <= y[10] <= 1
 0 <= y[11] <= 1
 0 <= y[12] <= 1
 0 <= y[13] <= 1
 0 <= y[14] <= 1
Binaries
 x[0,0]
 x[0,1]
 x[0,2]
 x[0,3]
 x[0,4]
 x[0,5]
 x[0,6]
 x[0,7]
 x[0,8]
 x[0,9]
 x[0,10]
 x[0,11]
 x[0,12]
 x[0,13]
 x[0,14]
 x[1,0]
 x[1,1]
 x[1,2]
 x[1,3]
 x[1,4]
 x[1,5]
 x[1,6]
 x[1,7]
 x[1,8]
 x[1,9]
 x[1,10]
 x[1,11]
 x[1,12]
 x[1,13]
 x[1,14]
 x[2,0]
 x[2,1]
 x[2,2]
 x[2,3]
 x[2,4]
 x[2,5]
 x[2,6]
 x[2,7]
 x[2,8]
 x[2,9]
 x[2,10]
 x[2,11]
 x[2,12]
 x[2,13]
 x[2,14]
 x[3,0]
 x[3,1]
 x[3,2]
 x[3,3]
 x[3,4]
 x[3,5]
 x[3,6]
 x[3,7]
 x[3,8]
 x[3,9]
 x[3,10]
 x[3,11]
 x[3,12]
 x[3,13]
 x[3,14]
 x[4,0]
 x[4,1]
 x[4,2]
 x[4,3]
 x[4,4]
 x[4,5]
 x[4,6]
 x[4,7]
 x[4,8]
 x[4,9]
 x[4,10]
 x[4,11]
 x[4,12]
 x[4,13]
 x[4,14]
 x[5,0]
 x[5,1]
 x[5,2]
 x[5,3]
 x[5,4]
 x[5,5]
 x[5,6]
 x[5,7]
 x[5,8]
 x[5,9]
 x[5,10]
 x[5,11]
 x[5,12]
 x[5,13]
 x[5,14]
 x[6,0]
 x[6,1]
 x[6,2]
 x[6,3]
 x[6,4]
 x[6,5]
 x[6,6]
 x[6,7]
 x[6,8]
 x[6,9]
 x[6,10]
 x[6,11]
 x[6,12]
 x[6,13]
 x[6,14]
 x[7,0]
 x[7,1]
 x[7,2]
 x[7,3]
 x[7,4]
 x[7,5]
 x[7,6]
 x[7,7]
 x[7,8]
 x[7,9]
 x[7,10]
 x[7,11]
 x[7,12]
 x[7,13]
 x[7,14]
 x[8,0]
 x[8,1]
 x[8,2]
 x[8,3]
 x[8,4]
 x[8,5]
 x[8,6]
 x[8,7]
 x[8,8]
 x[8,9]
 x[8,10]
 x[8,11]
 x[8,12]
 x[8,13]
 x[8,14]
 x[9,0]
 x[9,1]
 x[9,2]
 x[9,3]
 x[9,4]
 x[9,5]
 x[9,6]
 x[9,7]
 x[9,8]
 x[9,9]
 x[9,10]
 x[9,11]
 x[9,12]
 x[9,13]
 x[9,14]
 x[10,0]
 x[10,1]
 x[10,2]
 x[10,3]
 x[10,4]
 x[10,5]
 x[10,6]
 x[10,7]
 x[10,8]
 x[10,9]
 x[10,10]
 x[10,11]
 x[10,12]
 x[10,13]
 x[10,14]
 x[11,0]
 x[11,1]
 x[11,2]
 x[11,3]
 x[11,4]
 x[11,5]
 x[11,6]
 x[11,7]
 x[11,8]
 x[11,9]
 x[11,10]
 x[11,11]
 x[11,12]
 x[11,13]
 x[11,14]
 x[12,0]
 x[12,1]
 x[12,2]
 x[12,3]
 x[12,4]
 x[12,5]
 x[12,6]
 x[12,7]
 x[12,8]
 x[12,9]
 x[12,10]
 x[12,11]
 x[12,12]
 x[12,13]
 x[12,14]
 x[13,0]
 x[13,1]
 x[13,2]
 x[13,3]
 x[13,4]
 x[13,5]
 x[13,6]
 x[13,7]
 x[13,8]
 x[13,9]
 x[13,10]
 x[13,11]
 x[13,12]
 x[13,13]
 x[13,14]
 x[14,0]
 x[14,1]
 x[14,2]
 x[14,3]
 x[14,4]
 x[14,5]
 x[14,6]
 x[14,7]
 x[14,8]
 x[14,9]
 x[14,10]
 x[14,11]
 x[14,12]
 x[14,13]
 x[14,14]
 x[15,0]
 x[15,1]
 x[15,2]
 x[15,3]
 x[15,4]
 x[15,5]
 x[15,6]
 x[15,7]
 x[15,8]
 x[15,9]
 x[15,10]
 x[15,11]
 x[15,12]
 x[15,13]
 x[15,14]
 x[16,0]
 x[16,1]
 x[16,2]
 x[16,3]
 x[16,4]
 x[16,5]
 x[16,6]
 x[16,7]
 x[16,8]
 x[16,9]
 x[16,10]
 x[16,11]
 x[16,12]
 x[16,13]
 x[16,14]
 x[17,0]
 x[17,1]
 x[17,2]
 x[17,3]
 x[17,4]
 x[17,5]
 x[17,6]
 x[17,7]
 x[17,8]
 x[17,9]
 x[17,10]
 x[17,11]
 x[17,12]
 x[17,13]
 x[17,14]
 x[18,0]
 x[18,1]
 x[18,2]
 x[18,3]
 x[18,4]
 x[18,5]
 x[18,6]
 x[18,7]
 x[18,8]
 x[18,9]
 x[18,10]
 x[18,11]
 x[18,12]
 x[18,13]
 x[18,14]
 x[19,0]
 x[19,1]
 x[19,2]
 x[19,3]
 x[19,4]
 x[19,5]
 x[19,6]
 x[19,7]
 x[19,8]
 x[19,9]
 x[19,10]
 x[19,11]
 x[19,12]
 x[19,13]
 x[19,14]
 x[20,0]
 x[20,1]
 x[20,2]
 x[20,3]
 x[20,4]
 x[20,5]
 x[20,6]
 x[20,7]
 x[20,8]
 x[20,9]
 x[20,10]
 x[20,11]
 x[20,12]
 x[20,13]
 x[20,14]
 x[21,0]
 x[21,1]
 x[21,2]
 x[21,3]
 x[21,4]
 x[21,5]
 x[21,6]
 x[21,7]
 x[21,8]
 x[21,9]
 x[21,10]
 x[21,11]
 x[21,12]
 x[21,13]
 x[21,14]
 x[22,0]
 x[22,1]
 x[22,2]
 x[22,3]
 x[22,4]
 x[22,5]
 x[22,6]
 x[22,7]
 x[22,8]
 x[22,9]
 x[22,10]
 x[22,11]
 x[22,12]
 x[22,13]
 x[22,14]
 x[23,0]
 x[23,1]
 x[23,2]
 x[23,3]
 x[23,4]
 x[23,5]
 x[23,6]
 x[23,7]
 x[23,8]
 x[23,9]
 x[23,10]
 x[23,11]
 x[23,12]
 x[23,13]
 x[23,14]
 x[24,0]
 x[24,1]
 x[24,2]
 x[24,3]
 x[24,4]
 x[24,5]
 x[24,6]
 x[24,7]
 x[24,8]
 x[24,9]
 x[24,10]
 x[24,11]
 x[24,12]
 x[24,13]
 x[24,14]
 x[25,0]
 x[25,1]
 x[25,2]
 x[25,3]
 x[25,4]
 x[25,5]
 x[25,6]
 x[25,7]
 x[25,8]
 x[25,9]
 x[25,10]
 x[25,11]
 x[25,12]
 x[25,13]
 x[25,14]
 x[26,0]
 x[26,1]
 x[26,2]
 x[26,3]
 x[26,4]
 x[26,5]
 x[26,6]
 x[26,7]
 x[26,8]
 x[26,9]
 x[26,10]
 x[26,11]
 x[26,12]
 x[26,13]
 x[26,14]
 x[27,0]
 x[27,1]
 x[27,2]
 x[27,3]
 x[27,4]
 x[27,5]
 x[27,6]
 x[27,7]
 x[27,8]
 x[27,9]
 x[27,10]
 x[27,11]
 x[27,12]
 x[27,13]
 x[27,14]
 x[28,0]
 x[28,1]
 x[28,2]
 x[28,3]
 x[28,4]
 x[28,5]
 x[28,6]
 x[28,7]
 x[28,8]
 x[28,9]
 x[28,10]
 x[28,11]
 x[28,12]
 x[28,13]
 x[28,14]
 x[29,0]
 x[29,1]
 x[29,2]
 x[29,3]
 x[29,4]
 x[29,5]
 x[29,6]
 x[29,7]
 x[29,8]
 x[29,9]
 x[29,10]
 x[29,11]
 x[29,12]
 x[29,13]
 x[29,14]
 y[0]
 y[1]
 y[2]
 y[3]
 y[4]
 y[5]
 y[6]
 y[7]
 y[8]
 y[9]
 y[10]
 y[11]
 y[12]
 y[13]
 y[14]
End
